solution status: optimal solution found
objective value:                     143163.266622444
d11(0,0)                                            1 	(obj:0)
d11(1,1)                                            1 	(obj:0)
d11(1,2)                                            1 	(obj:0)
d11(2,3)                                            1 	(obj:0)
d11(2,4)                                            1 	(obj:0)
d11(2,5)                                            1 	(obj:0)
d11(3,9)                                            1 	(obj:0)
d11(3,11)                                           1 	(obj:0)
d11(3,13)                                           1 	(obj:0)
d12(3,8)                                            1 	(obj:0)
d12(3,10)                                           1 	(obj:0)
d12(3,12)                                           1 	(obj:0)
d12(3,14)                                           1 	(obj:0)
d21(2,3)                                            1 	(obj:0)
d21(3,7)                                            1 	(obj:0)
d21(3,8)                                            1 	(obj:0)
y2(3,8)                              1385.48851144895 	(obj:0)
y2(3,10)                             1385.48851144895 	(obj:0)
y2(3,12)                             1385.48851144895 	(obj:0)
y2(3,14)                             1385.48851144895 	(obj:0)
STE(1,1)                             2047.49999999935 	(obj:0)
STE(0,0)                                         7875 	(obj:0)
STE(1,2)                             3705.74989888817 	(obj:0)
STE(2,3)                            -240.749898889513 	(obj:0)
STE(2,4)                             1417.49999999994 	(obj:0)
STE(2,5)                              1417.4999999993 	(obj:0)
STE(2,6)                             3075.74989888817 	(obj:0)
STE(3,7)                            -870.749898889513 	(obj:0)
STE(3,8)                             445.464186986992 	(obj:0)
STE(3,9)                                        787.5 	(obj:0)
STE(3,10)                            2103.71408587644 	(obj:0)
STE(3,11)                            787.499999999305 	(obj:0)
STE(3,12)                            2103.71408587581 	(obj:0)
STE(3,13)                            2445.74989888817 	(obj:0)
STE(3,14)                            3761.96398476467 	(obj:0)
AVE(2)                               3315.65537776224 	(obj:0)
WB(3)                                3315.65799770399 	(obj:0)
y1(1,1)                              4677.75000000059 	(obj:0)
y1(1,2)                              3185.32509100065 	(obj:0)
y1(2,3)                              1492.42490899998 	(obj:0)
y1(2,5)                              1492.42490899998 	(obj:0)
AVE(3)                               3315.65799770399 	(obj:0)
WG(1)                                3248.33172520918 	(obj:10)
WG(2)                                3315.65537776224 	(obj:10)
BG(1)                                4198.29249928125 	(obj:10)
BG(2)                                880.637121217351 	(obj:10)
BG(3)                                2673.40993877551 	(obj:10)
AVE(1)                               3248.33172520918 	(obj:0)
